NAME (null)_copy
ROWS
 N  OBJ
 L  ROW00001
 L  ROW00002
 L  ROW00011
 L  ROW00012
 L  ROW00013
 L  ROW00022
 L  ROW00023
 L  ROW00024
 E  ROW00027
 E  ROW00028
 E  ROW00029
 L  ROW00033
 L  ROW00034
 L  ROW00035
 L  ROW00044
 L  ROW00045
 L  ROW00046
 E  ROW00048
 L  ROW00049
 L  ROW00050
COLUMNS
    COL00006  ROW00027  -1
    COL00006  ROW00022  -1
    COL00006  ROW00002  1
    COL00006  ROW00001  2
    COL00006  ROW00011  -1
    COL00007  ROW00028  -1
    COL00007  ROW00023  -1
    COL00007  ROW00002  2
    COL00007  ROW00001  1
    COL00007  ROW00012  -1
    COL00008  ROW00029  -1
    COL00008  ROW00024  -1
    COL00008  ROW00002  1.5
    COL00008  ROW00001  1.5
    COL00008  ROW00013  -1
    COL00012  ROW00027  -1
    COL00012  ROW00022  -1
    COL00012  ROW00011  2
    COL00012  ROW00012  1
    COL00013  ROW00028  -1
    COL00013  ROW00023  -1
    COL00013  ROW00011  1
    COL00013  ROW00012  2
    COL00014  ROW00029  -1
    COL00014  ROW00024  -1
    COL00014  ROW00011  1.5
    COL00014  ROW00012  1.5
    COL00023  ROW00022  2
    COL00023  ROW00023  1
    COL00023  ROW00027  -1
    COL00024  ROW00022  1
    COL00024  ROW00023  2
    COL00024  ROW00028  -1
    COL00025  ROW00022  1.5
    COL00025  ROW00023  1.5
    COL00025  ROW00029  -1
    COL00027  OBJ       -3.0211480362537757e-01
    COL00027  ROW00024  0.634441087613293
    COL00027  ROW00013  3.0211480362537757e-01
    COL00027  ROW00050  4.4232628398791540e-01
    COL00027  ROW00046  1.4021148036253777e+00
    COL00027  ROW00035  1
    COL00028  ROW00044  -1
    COL00028  ROW00033  -1
    COL00028  ROW00027  1
    COL00029  ROW00045  -1
    COL00029  ROW00034  -1
    COL00029  ROW00028  1
    COL00030  ROW00046  -1
    COL00030  ROW00035  -1
    COL00030  ROW00029  1
    COL00034  ROW00044  -1
    COL00034  ROW00033  2
    COL00034  ROW00034  1
    COL00035  ROW00045  -1
    COL00035  ROW00033  1
    COL00035  ROW00034  2
    COL00036  ROW00046  -1
    COL00036  ROW00033  1.5
    COL00036  ROW00034  1.5
    COL00045  ROW00044  2
    COL00045  ROW00045  1
    COL00045  ROW00048  -0.8
    COL00045  ROW00049  0.1
    COL00046  ROW00044  1
    COL00046  ROW00045  2
    COL00046  ROW00048  0.1
    COL00046  ROW00049  -0.8
    COL00047  ROW00044  1.5
    COL00047  ROW00045  1.5
    COL00047  ROW00048  0.15
    COL00047  ROW00049  0.15
    COL00047  ROW00050  -1
RHS
    RHS1      ROW00001  170
    RHS1      ROW00002  130
    RHS1      ROW00011  170
    RHS1      ROW00012  130
    RHS1      ROW00022  170
    RHS1      ROW00023  130
    RHS1      ROW00033  170
    RHS1      ROW00034  130
    RHS1      ROW00044  170
    RHS1      ROW00045  130
BOUNDS
 UP BND1      COL00006  85.086
 UP BND1      COL00007  65.066
 UP BND1      COL00008  8.6754333333333335e+01
 UP BND1      COL00012  127.6285
 UP BND1      COL00013  97.5985
 UP BND1      COL00014  130.131
 UP BND1      COL00023  191.44225
 UP BND1      COL00024  146.39725
 UP BND1      COL00025  195.196
 UP BND1      COL00027  2.8715453333333340e+02
 UP BND1      COL00028  404.15475
 UP BND1      COL00029  309.05975
 UP BND1      COL00030  4.1207933333333335e+02
 UP BND1      COL00034  287.162875
 UP BND1      COL00035  219.595375
 UP BND1      COL00036  292.7935
 LO BND1      COL00045  -0.001
 UP BND1      COL00045  1.2352302362499998e+02
 UP BND1      COL00046  329.393063
 UP BND1      COL00047  4.3919041733333330e+02
ENDATA
